c 
c MolecularSimulation 0.9.3
c Simulation written: Jan 13 2012 -- 15:17:57
c Test: Distribution
c Input: ./data/testCNF/SWEEP_R4_K3_N20_M72_S001.cnf
c 
s SATISFIABLE
v 1 2 3 4 5 -6 -7 -8 10 11 -12 13 14 15 -16 17 18 19 20 0
c algorithmTime:  809
c solutionMemory: 325
c mixCount:       213
c extractCount:   0
c appendCount:    14299424
c splitCount:     213
c spliceCount:    6614609
c purifyCount:    71
c 
